Version identifier: 12.10.0.0 | 2019-11-26 | 843d4de
CPXPARAM_LPMethod                                4
CPXPARAM_Threads                                 1
CPXPARAM_SolutionType                            2
CPXPARAM_TimeLimit                               10000
Tried aggregator 1 time.
LP Presolve eliminated 0 rows and 1968 columns.
Reduced LP has 1042 rows, 173029 columns, and 4573582 nonzeros.
Presolve time = 2.18 sec. (759.83 ticks)
Parallel mode: none, using 1 thread for barrier
Number of nonzeros in lower triangle of A*A' = 410510
Using Nested Dissection ordering
Total time for automatic ordering = 1.33 sec. (637.97 ticks)
Summary statistics for Cholesky factor:
  Rows in Factor            = 1042
  Integer space required    = 3612
  Total non-zeros in factor = 509715
  Total FP ops to factor    = 321279721
 Itn      Primal Obj        Dual Obj  Prim Inf Upper Inf  Dual Inf Inf Ratio
   0   5.7933686e+06   0.0000000e+00  4.57e+07  0.00e+00  2.17e+05  1.00e+00
   1   5.8866783e+05  -6.4210843e+01  4.65e+06  0.00e+00  9.68e+03  4.83e-01
   2   1.0653190e+03  -6.6660317e+01  8.94e+03  0.00e+00  4.46e+00  9.66e+03
   3   4.2175269e+02  -8.8043617e+00  3.28e+03  0.00e+00  2.23e+00  1.71e+03
   4   3.9271446e+02   1.3047427e+01  3.00e+03  0.00e+00  1.64e+00  1.36e+03
   5   3.0203834e+02   2.4183683e+01  2.16e+03  0.00e+00  1.31e+00  1.46e+03
   6   2.8077121e+02   3.4585196e+01  1.96e+03  0.00e+00  1.05e+00  1.71e+03
   7   2.3650865e+02   4.0316343e+01  1.53e+03  0.00e+00  9.14e-01  1.74e+03
   8   2.0968793e+02   4.8185403e+01  1.27e+03  0.00e+00  7.28e-01  2.19e+03
   9   1.8989049e+02   5.9156670e+01  1.07e+03  0.00e+00  4.81e-01  2.54e+03
  10   1.6016697e+02   5.9859173e+01  7.73e+02  0.00e+00  4.67e-01  2.58e+03
  11   1.4058358e+02   6.7214238e+01  5.70e+02  0.00e+00  3.34e-01  2.90e+03
  12   1.3607374e+02   6.8982609e+01  5.22e+02  0.00e+00  3.04e-01  3.21e+03
  13   1.2246215e+02   7.4823048e+01  3.73e+02  0.00e+00  2.12e-01  4.35e+03
  14   1.1538223e+02   7.9224545e+01  2.98e+02  0.00e+00  1.39e-01  5.82e+03
  15   1.0834513e+02   8.1877709e+01  2.22e+02  0.00e+00  9.52e-02  7.85e+03
  16   1.0377185e+02   8.3493588e+01  1.75e+02  0.00e+00  6.37e-02  1.02e+04
  17   1.0190904e+02   8.4615431e+01  1.56e+02  0.00e+00  4.12e-02  1.36e+04
  18   9.7822704e+01   8.5222377e+01  1.15e+02  0.00e+00  2.69e-02  1.74e+04
  19   9.7038194e+01   8.5469809e+01  1.07e+02  0.00e+00  2.20e-02  1.98e+04
  20   9.3631796e+01   8.5945789e+01  7.21e+01  0.00e+00  1.26e-02  2.73e+04
  21   9.3264531e+01   8.5972861e+01  6.83e+01  0.00e+00  1.20e-02  2.82e+04
  22   9.1295197e+01   8.6173828e+01  4.79e+01  0.00e+00  8.55e-03  3.55e+04
  23   8.9847500e+01   8.6375811e+01  3.25e+01  0.00e+00  5.77e-03  4.77e+04
  24   8.9008289e+01   8.6538222e+01  2.35e+01  0.00e+00  3.68e-03  6.84e+04
  25   8.8565861e+01   8.6665094e+01  1.87e+01  0.00e+00  2.07e-03  1.07e+05
  26   8.8293643e+01   8.6711361e+01  1.58e+01  0.00e+00  1.40e-03  1.39e+05
  27   8.7802905e+01   8.6722227e+01  1.06e+01  0.00e+00  1.26e-03  1.49e+05
  28   8.7576744e+01   8.6736524e+01  8.08e+00  0.00e+00  1.11e-03  1.67e+05
  29   8.7319022e+01   8.6770712e+01  5.28e+00  0.00e+00  7.17e-04  2.46e+05
  30   8.7114502e+01   8.6788643e+01  3.08e+00  0.00e+00  4.94e-04  3.46e+05
  31   8.7008729e+01   8.6802527e+01  1.94e+00  0.00e+00  3.18e-04  5.37e+05
  32   8.6937428e+01   8.6812776e+01  1.19e+00  0.00e+00  1.68e-04  1.02e+06
  33   8.6888181e+01   8.6817453e+01  6.85e-01  0.00e+00  7.98e-05  2.04e+06
  34   8.6852984e+01   8.6819188e+01  3.28e-01  0.00e+00  3.60e-05  4.04e+06
  35   8.6838127e+01   8.6819626e+01  1.79e-01  0.00e+00  2.09e-05  6.60e+06
  36   8.6826391e+01   8.6819872e+01  6.24e-02  0.00e+00  1.05e-05  1.28e+07
  37   8.6824013e+01   8.6819997e+01  3.88e-02  0.00e+00  5.02e-06  2.97e+07
  38   8.6821540e+01   8.6820045e+01  1.44e-02  0.00e+00  2.05e-06  7.06e+07
  39   8.6821138e+01   8.6820048e+01  1.05e-02  0.00e+00  1.85e-06  7.86e+07
  40   8.6820251e+01   8.6820060e+01  1.77e-03  0.00e+00  8.63e-07  1.74e+08
  41   8.6820185e+01   8.6820067e+01  1.13e-03  0.00e+00  1.85e-07  1.15e+09
  42   8.6820104e+01   8.6820068e+01  3.46e-04  0.00e+00  5.72e-08  3.60e+09
  43   8.6820083e+01   8.6820068e+01  1.43e-04  0.00e+00  1.43e-08  1.23e+10
  44   8.6820072e+01   8.6820068e+01  3.40e-05  0.00e+00  3.09e-09  3.94e+10
  45   8.6820072e+01   8.6820068e+01  3.54e-05  0.00e+00  3.34e-09  3.96e+10
  46   8.6820069e+01   8.6820068e+01  6.48e-06  0.00e+00  1.67e-09  1.25e+11
Barrier time = 29.57 sec. (20216.30 ticks)

Total time on 1 threads = 29.57 sec. (20216.30 ticks)
Solver name: CPLEX
Solve time: 29.582869858
Termination status: OPTIMAL
Result count: 1
Primal status: FEASIBLE_POINT
Dual status: FEASIBLE_POINT
